words_hard_train/2872.qaiger
aag 107 23 0 1 84
2
4
8
10
26
28
46
48
64
66
78
80
98
100
116
124
126
142
148
152
164
174
186
215
6 2 5
12 9 10
14 8 11
16 13 15
18 7 17
20 6 16
22 19 21
24 21 15
30 27 28
32 26 29
34 31 33
36 24 35
38 25 34
40 37 39
42 23 41
44 39 33
50 47 48
52 46 49
54 51 53
56 44 55
58 45 54
60 57 59
62 42 61
68 64 67
70 69 53
72 70 59
74 65 66
76 73 75
82 79 80
84 78 81
86 83 85
88 77 87
90 76 86
92 89 91
94 62 93
96 91 85
102 99 100
104 98 101
106 103 105
108 96 107
110 97 106
112 109 111
114 95 112
118 115 116
120 94 113
122 119 121
128 124 126
130 125 127
132 129 131
134 111 105
136 133 135
138 132 134
140 137 139
144 140 143
146 122 145
150 22 149
154 151 152
156 155 40
158 150 153
160 157 159
162 160 43
166 162 164
168 43 60
170 163 165
172 169 171
176 173 175
178 177 63
180 167 179
182 63 92
184 183 95
188 184 186
190 180 189
192 115 121
194 193 117
196 191 195
198 185 187
200 196 199
202 146 201
204 141 142
206 203 205
208 200 120
210 206 209
212 145 208
214 211 213
i0 1 x2[0]
i1 2 y1[0]
i2 1 x2[1]
i3 2 y1[1]
i4 1 x2[2]
i5 2 y1[2]
i6 1 x2[3]
i7 2 y1[3]
i8 1 x2[4]
i9 2 y1[4]
i10 1 x2[5]
i11 2 y1[5]
i12 1 x2[6]
i13 2 y1[6]
i14 2 y2[6]
i15 1 x2[7]
i16 2 y1[7]
i17 2 y2[7]
i18 2 y2[1]
i19 2 y2[2]
i20 2 y2[3]
i21 2 y2[4]
i22 2 y2[5]
o0 bv[0]
c
simplified
  <=
    and
      -18
      add
        1 x2
        invert
          2 y1
    2 y2
