words_hard_train/2872.qaiger.qdimacs
p cnf 107 253
a 32 1 4 39 13 49 23 62 0
e 2 3 5 6 7 8 9 10 11 12 14 15 16 17 18 19 20 21 22 24 25 26 27 28 29 30 31 33 34 35 36 37 38 40 41 42 43 44 45 46 47 48 50 51 52 53 54 55 56 57 58 59 60 61 63 64 65 66 67 68 69 70 71 72 73 74 75 76 77 78 79 80 81 82 83 84 85 86 87 88 89 90 91 92 93 94 95 96 97 98 99 100 101 102 103 104 105 106 107 0
-1 2 3 0
1 -3 0
-2 -3 0
4 -5 6 0
-4 -6 0
5 -6 0
-4 5 7 0
4 -7 0
-5 -7 0
6 7 8 0
-6 -8 0
-7 -8 0
3 8 9 0
-3 -9 0
-8 -9 0
-3 -8 10 0
3 -10 0
8 -10 0
9 10 11 0
-9 -11 0
-10 -11 0
10 7 12 0
-10 -12 0
-7 -12 0
13 -14 15 0
-13 -15 0
14 -15 0
-13 14 16 0
13 -16 0
-14 -16 0
15 16 17 0
-15 -17 0
-16 -17 0
-12 17 18 0
12 -18 0
-17 -18 0
12 -17 19 0
-12 -19 0
17 -19 0
18 19 20 0
-18 -20 0
-19 -20 0
11 20 21 0
-11 -21 0
-20 -21 0
19 16 22 0
-19 -22 0
-16 -22 0
23 -24 25 0
-23 -25 0
24 -25 0
-23 24 26 0
23 -26 0
-24 -26 0
25 26 27 0
-25 -27 0
-26 -27 0
-22 27 28 0
22 -28 0
-27 -28 0
22 -27 29 0
-22 -29 0
27 -29 0
28 29 30 0
-28 -30 0
-29 -30 0
-21 30 31 0
21 -31 0
-30 -31 0
-32 33 34 0
32 -34 0
-33 -34 0
34 26 35 0
-34 -35 0
-26 -35 0
-35 29 36 0
35 -36 0
-29 -36 0
32 -33 37 0
-32 -37 0
33 -37 0
36 37 38 0
-36 -38 0
-37 -38 0
39 -40 41 0
-39 -41 0
40 -41 0
-39 40 42 0
39 -42 0
-40 -42 0
41 42 43 0
-41 -43 0
-42 -43 0
38 43 44 0
-38 -44 0
-43 -44 0
-38 -43 45 0
38 -45 0
43 -45 0
44 45 46 0
-44 -46 0
-45 -46 0
-31 46 47 0
31 -47 0
-46 -47 0
45 42 48 0
-45 -48 0
-42 -48 0
49 -50 51 0
-49 -51 0
50 -51 0
-49 50 52 0
49 -52 0
-50 -52 0
51 52 53 0
-51 -53 0
-52 -53 0
-48 53 54 0
48 -54 0
-53 -54 0
48 -53 55 0
-48 -55 0
53 -55 0
54 55 56 0
-54 -56 0
-55 -56 0
47 -56 57 0
-47 -57 0
56 -57 0
57 -58 59 0
-57 -59 0
58 -59 0
-47 56 60 0
47 -60 0
-56 -60 0
59 60 61 0
-59 -61 0
-60 -61 0
-62 -63 64 0
62 -64 0
63 -64 0
62 63 65 0
-62 -65 0
-63 -65 0
64 65 66 0
-64 -66 0
-65 -66 0
55 52 67 0
-55 -67 0
-52 -67 0
66 67 68 0
-66 -68 0
-67 -68 0
-66 -67 69 0
66 -69 0
67 -69 0
68 69 70 0
-68 -70 0
-69 -70 0
-70 71 72 0
70 -72 0
-71 -72 0
-61 72 73 0
61 -73 0
-72 -73 0
-11 74 75 0
11 -75 0
-74 -75 0
75 -76 77 0
-75 -77 0
76 -77 0
77 -20 78 0
-77 -78 0
20 -78 0
-75 76 79 0
75 -79 0
-76 -79 0
78 79 80 0
-78 -80 0
-79 -80 0
-80 21 81 0
80 -81 0
-21 -81 0
-81 -82 83 0
81 -83 0
82 -83 0
21 -30 84 0
-21 -84 0
30 -84 0
81 82 85 0
-81 -85 0
-82 -85 0
84 85 86 0
-84 -86 0
-85 -86 0
86 87 88 0
-86 -88 0
-87 -88 0
88 31 89 0
-88 -89 0
-31 -89 0
83 89 90 0
-83 -90 0
-89 -90 0
31 -46 91 0
-31 -91 0
46 -91 0
91 47 92 0
-91 -92 0
-47 -92 0
-92 -93 94 0
92 -94 0
93 -94 0
-90 94 95 0
90 -95 0
-94 -95 0
57 60 96 0
-57 -96 0
-60 -96 0
96 58 97 0
-96 -97 0
-58 -97 0
95 97 98 0
-95 -98 0
-97 -98 0
92 93 99 0
-92 -99 0
-93 -99 0
-98 99 100 0
98 -100 0
-99 -100 0
-73 100 101 0
73 -101 0
-100 -101 0
70 -71 102 0
-70 -102 0
71 -102 0
101 102 103 0
-101 -103 0
-102 -103 0
-100 -60 104 0
100 -104 0
60 -104 0
-103 104 105 0
103 -105 0
-104 -105 0
72 -104 106 0
-72 -106 0
104 -106 0
105 106 107 0
-105 -107 0
-106 -107 0
-107 0
